EVRP-TW-SPD dataset generation/evrptwspd_instances/small_instances/Cplex10er/c202C10.txt
StringID	Type	x	y	Delivery	Pickup	ReadyTime	DueDate	ServiceTime
D0	d	40.0	50.0	0.0	0.0	0.0	3390.0	0.0
S0	f	40.0	50.0	0.0	0.0	0.0	3390.0	0.0
S1	f	77.0	52.0	0.0	0.0	0.0	3390.0	0.0
S7	f	21.0	83.0	0.0	0.0	0.0	3390.0	0.0
S13	f	22.0	34.0	0.0	0.0	0.0	3390.0	0.0
S15	f	39.0	26.0	0.0	0.0	0.0	3390.0	0.0
C96	c	62.0	40.0	6.451612903225806	3.548387096774194	1808.0	1968.0	90.0
C30	c	20.0	55.0	3.6363636363636367	6.363636363636363	2737.0	2897.0	90.0
C84	c	70.0	58.0	16.571428571428573	3.428571428571427	321.0	481.0	90.0
C16	c	20.0	85.0	9.411764705882353	30.588235294117645	693.0	853.0	90.0
C57	c	38.0	15.0	15.789473684210527	24.210526315789473	0.0	3264.0	90.0
C8	c	34.0	60.0	11.333333333333332	8.666666666666668	12.0	172.0	90.0
C24	c	25.0	50.0	5.0	5.0	2925.0	3085.0	90.0
C25	c	22.0	66.0	13.333333333333332	26.666666666666668	1078.0	1238.0	90.0
C10	c	35.0	66.0	5.303030303030303	4.696969696969697	28.0	188.0	90.0
C6	c	16.0	42.0	7.619047619047619	12.380952380952381	2544.0	2704.0	90.0

Q Vehicle fuel tank capacity /77.75/
C Vehicle load capacity /700.0/
r fuel consumption rate /1.0/
g inverse refueling rate /3.47/
v average Velocity /1.0/
